
(set-logic HORN)
(declare-rel assign_282_26_10_abs (Int Int Int Int Int Int Int Int Int Int))
(declare-rel assert_273_25_3_abs (Int Int Int Int Int Int Int Int Int Int))
(declare-rel while_285_22_8_abs (Int Int Int Int Int Int Int Int Int Int))
(declare-rel assign_187_20_8_abs (Int Int Int Int Int Int Int Int Int Int))
(declare-rel assign_151_18_1_abs (Int Int Int Int Int Int Int Int Int Int))
(declare-rel assign_112_15_5_abs (Int Int Int Int Int Int Int Int Int Int))
(declare-rel arrayassign_103_14_5_abs (Int Int Int Int Int Int Int Int Int Int))
(declare-rel while_115_12_1_abs (Int Int Int Int Int Int Int Int Int Int))
(declare-rel assign_46_11_1_abs (Int Int Int Int Int Int Int Int Int Int))
(declare-rel end_abs (Int Int Int Int Int Int Int Int Int Int))
(declare-rel start_abs (Int Int Int Int Int Int Int Int Int Int));Number of predicates (nodes) = 11
;Number of variables = 4
;Number of clauses = 14
;
(assert (forall ( (vacker_1 Int) (vacker_0 Int) (vacker_11 Int) (vacker_01 Int) (l Int) (i Int) (i1 Int) (i2 Int) (i3 Int) (i4 Int)) (=> (and (=> (= i3 i4) (= vacker_0 vacker_1)) (=> (= i1 i2) (= vacker_01 vacker_11))) (start_abs i4 vacker_0 i3 vacker_0 i2 vacker_01 i1 vacker_01 l i))))
(assert (forall ( (i Int) (l Int) (vacker_1 Int) (vacker_0 Int) (vacker_11 Int) (vacker_01 Int) (i1 Int) (i2 Int) (i3 Int) (i4 Int)) (=> (and (=> (= i1 i2) (= vacker_0 vacker_1)) (=> (= i3 i4) (= vacker_01 vacker_11)) (start_abs i3 vacker_01 i3 vacker_01 i1 vacker_0 i1 vacker_0 l i) (start_abs i3 vacker_01 i3 vacker_01 i1 vacker_0 i2 vacker_0 l i) (start_abs i3 vacker_01 i3 vacker_01 i2 vacker_0 i1 vacker_0 l i) (start_abs i3 vacker_01 i3 vacker_01 i2 vacker_0 i2 vacker_0 l i) (start_abs i3 vacker_01 i4 vacker_01 i1 vacker_0 i1 vacker_0 l i) (start_abs i3 vacker_01 i4 vacker_01 i1 vacker_0 i2 vacker_0 l i) (start_abs i3 vacker_01 i4 vacker_01 i2 vacker_0 i1 vacker_0 l i) (start_abs i3 vacker_01 i4 vacker_01 i2 vacker_0 i2 vacker_0 l i) (start_abs i4 vacker_01 i3 vacker_01 i1 vacker_0 i1 vacker_0 l i) (start_abs i4 vacker_01 i3 vacker_01 i1 vacker_0 i2 vacker_0 l i) (start_abs i4 vacker_01 i3 vacker_01 i2 vacker_0 i1 vacker_0 l i) (start_abs i4 vacker_01 i3 vacker_01 i2 vacker_0 i2 vacker_0 l i) (start_abs i4 vacker_01 i4 vacker_01 i1 vacker_0 i1 vacker_0 l i) (start_abs i4 vacker_01 i4 vacker_01 i1 vacker_0 i2 vacker_0 l i) (start_abs i4 vacker_01 i4 vacker_01 i2 vacker_0 i1 vacker_0 l i) (start_abs i4 vacker_01 i4 vacker_01 i2 vacker_0 i2 vacker_0 l i)) (assign_46_11_1_abs i4 vacker_01 i3 vacker_01 i2 vacker_0 i1 vacker_0 l i))))
;
;(assign)  i := 0
(assert (forall ( (i Int) (l Int) (vacker_1 Int) (vacker_0 Int) (vacker_11 Int) (vacker_01 Int) (i1 Int) (i2 Int) (i3 Int) (i4 Int)) (=> (and (=> (= i1 i2) (= vacker_0 vacker_1)) (=> (= i3 i4) (= vacker_01 vacker_11)) (assign_46_11_1_abs i3 vacker_01 i3 vacker_01 i1 vacker_0 i1 vacker_0 l i) (assign_46_11_1_abs i3 vacker_01 i3 vacker_01 i1 vacker_0 i2 vacker_0 l i) (assign_46_11_1_abs i3 vacker_01 i3 vacker_01 i2 vacker_0 i1 vacker_0 l i) (assign_46_11_1_abs i3 vacker_01 i3 vacker_01 i2 vacker_0 i2 vacker_0 l i) (assign_46_11_1_abs i3 vacker_01 i4 vacker_01 i1 vacker_0 i1 vacker_0 l i) (assign_46_11_1_abs i3 vacker_01 i4 vacker_01 i1 vacker_0 i2 vacker_0 l i) (assign_46_11_1_abs i3 vacker_01 i4 vacker_01 i2 vacker_0 i1 vacker_0 l i) (assign_46_11_1_abs i3 vacker_01 i4 vacker_01 i2 vacker_0 i2 vacker_0 l i) (assign_46_11_1_abs i4 vacker_01 i3 vacker_01 i1 vacker_0 i1 vacker_0 l i) (assign_46_11_1_abs i4 vacker_01 i3 vacker_01 i1 vacker_0 i2 vacker_0 l i) (assign_46_11_1_abs i4 vacker_01 i3 vacker_01 i2 vacker_0 i1 vacker_0 l i) (assign_46_11_1_abs i4 vacker_01 i3 vacker_01 i2 vacker_0 i2 vacker_0 l i) (assign_46_11_1_abs i4 vacker_01 i4 vacker_01 i1 vacker_0 i1 vacker_0 l i) (assign_46_11_1_abs i4 vacker_01 i4 vacker_01 i1 vacker_0 i2 vacker_0 l i) (assign_46_11_1_abs i4 vacker_01 i4 vacker_01 i2 vacker_0 i1 vacker_0 l i) (assign_46_11_1_abs i4 vacker_01 i4 vacker_01 i2 vacker_0 i2 vacker_0 l i)) (while_115_12_1_abs i4 vacker_01 i3 vacker_01 i2 vacker_0 i1 vacker_0 l 0))))
;
;(while)   while((!(source[i]==0)))
(assert (forall ( (vacker_1 Int) (vacker_0 Int) (vacker_2 Int) (vacker_11 Int) (vacker_01 Int) (l Int) (i Int) (i1 Int) (i2 Int) (i3 Int) (i4 Int)) (=> (and (=> (= i3 i4) (= vacker_0 vacker_1)) (=> (= i i1) (= vacker_01 vacker_11)) (=> (= i i2) (= vacker_01 vacker_2)) (=> (= i1 i2) (= vacker_11 vacker_2)) (while_115_12_1_abs i3 vacker_0 i3 vacker_0 i vacker_01 i vacker_01 l i) (while_115_12_1_abs i3 vacker_0 i3 vacker_0 i vacker_01 i1 vacker_01 l i) (while_115_12_1_abs i3 vacker_0 i3 vacker_0 i vacker_01 i2 vacker_01 l i) (while_115_12_1_abs i3 vacker_0 i3 vacker_0 i1 vacker_01 i vacker_01 l i) (while_115_12_1_abs i3 vacker_0 i3 vacker_0 i1 vacker_01 i1 vacker_01 l i) (while_115_12_1_abs i3 vacker_0 i3 vacker_0 i1 vacker_01 i2 vacker_01 l i) (while_115_12_1_abs i3 vacker_0 i3 vacker_0 i2 vacker_01 i vacker_01 l i) (while_115_12_1_abs i3 vacker_0 i3 vacker_0 i2 vacker_01 i1 vacker_01 l i) (while_115_12_1_abs i3 vacker_0 i3 vacker_0 i2 vacker_01 i2 vacker_01 l i) (while_115_12_1_abs i3 vacker_0 i4 vacker_0 i vacker_01 i vacker_01 l i) (while_115_12_1_abs i3 vacker_0 i4 vacker_0 i vacker_01 i1 vacker_01 l i) (while_115_12_1_abs i3 vacker_0 i4 vacker_0 i vacker_01 i2 vacker_01 l i) (while_115_12_1_abs i3 vacker_0 i4 vacker_0 i1 vacker_01 i vacker_01 l i) (while_115_12_1_abs i3 vacker_0 i4 vacker_0 i1 vacker_01 i1 vacker_01 l i) (while_115_12_1_abs i3 vacker_0 i4 vacker_0 i1 vacker_01 i2 vacker_01 l i) (while_115_12_1_abs i3 vacker_0 i4 vacker_0 i2 vacker_01 i vacker_01 l i) (while_115_12_1_abs i3 vacker_0 i4 vacker_0 i2 vacker_01 i1 vacker_01 l i) (while_115_12_1_abs i3 vacker_0 i4 vacker_0 i2 vacker_01 i2 vacker_01 l i) (while_115_12_1_abs i4 vacker_0 i3 vacker_0 i vacker_01 i vacker_01 l i) (while_115_12_1_abs i4 vacker_0 i3 vacker_0 i vacker_01 i1 vacker_01 l i) (while_115_12_1_abs i4 vacker_0 i3 vacker_0 i vacker_01 i2 vacker_01 l i) (while_115_12_1_abs i4 vacker_0 i3 vacker_0 i1 vacker_01 i vacker_01 l i) (while_115_12_1_abs i4 vacker_0 i3 vacker_0 i1 vacker_01 i1 vacker_01 l i) (while_115_12_1_abs i4 vacker_0 i3 vacker_0 i1 vacker_01 i2 vacker_01 l i) (while_115_12_1_abs i4 vacker_0 i3 vacker_0 i2 vacker_01 i vacker_01 l i) (while_115_12_1_abs i4 vacker_0 i3 vacker_0 i2 vacker_01 i1 vacker_01 l i) (while_115_12_1_abs i4 vacker_0 i3 vacker_0 i2 vacker_01 i2 vacker_01 l i) (while_115_12_1_abs i4 vacker_0 i4 vacker_0 i vacker_01 i vacker_01 l i) (while_115_12_1_abs i4 vacker_0 i4 vacker_0 i vacker_01 i1 vacker_01 l i) (while_115_12_1_abs i4 vacker_0 i4 vacker_0 i vacker_01 i2 vacker_01 l i) (while_115_12_1_abs i4 vacker_0 i4 vacker_0 i1 vacker_01 i vacker_01 l i) (while_115_12_1_abs i4 vacker_0 i4 vacker_0 i1 vacker_01 i1 vacker_01 l i) (while_115_12_1_abs i4 vacker_0 i4 vacker_0 i1 vacker_01 i2 vacker_01 l i) (while_115_12_1_abs i4 vacker_0 i4 vacker_0 i2 vacker_01 i vacker_01 l i) (while_115_12_1_abs i4 vacker_0 i4 vacker_0 i2 vacker_01 i1 vacker_01 l i) (while_115_12_1_abs i4 vacker_0 i4 vacker_0 i2 vacker_01 i2 vacker_01 l i) (not (= 0 vacker_01))) (arrayassign_103_14_5_abs i4 vacker_0 i3 vacker_0 i2 vacker_01 i1 vacker_01 l i))))
(assert (forall ( (vacker_1 Int) (vacker_0 Int) (vacker_2 Int) (vacker_11 Int) (vacker_01 Int) (l Int) (i Int) (i1 Int) (i2 Int) (i3 Int) (i4 Int)) (=> (and (=> (= i3 i4) (= vacker_0 vacker_1)) (=> (= i i1) (= vacker_01 vacker_11)) (=> (= i i2) (= vacker_01 vacker_2)) (=> (= i1 i2) (= vacker_11 vacker_2)) (while_115_12_1_abs i3 vacker_0 i3 vacker_0 i vacker_01 i vacker_01 l i) (while_115_12_1_abs i3 vacker_0 i3 vacker_0 i vacker_01 i1 vacker_01 l i) (while_115_12_1_abs i3 vacker_0 i3 vacker_0 i vacker_01 i2 vacker_01 l i) (while_115_12_1_abs i3 vacker_0 i3 vacker_0 i1 vacker_01 i vacker_01 l i) (while_115_12_1_abs i3 vacker_0 i3 vacker_0 i1 vacker_01 i1 vacker_01 l i) (while_115_12_1_abs i3 vacker_0 i3 vacker_0 i1 vacker_01 i2 vacker_01 l i) (while_115_12_1_abs i3 vacker_0 i3 vacker_0 i2 vacker_01 i vacker_01 l i) (while_115_12_1_abs i3 vacker_0 i3 vacker_0 i2 vacker_01 i1 vacker_01 l i) (while_115_12_1_abs i3 vacker_0 i3 vacker_0 i2 vacker_01 i2 vacker_01 l i) (while_115_12_1_abs i3 vacker_0 i4 vacker_0 i vacker_01 i vacker_01 l i) (while_115_12_1_abs i3 vacker_0 i4 vacker_0 i vacker_01 i1 vacker_01 l i) (while_115_12_1_abs i3 vacker_0 i4 vacker_0 i vacker_01 i2 vacker_01 l i) (while_115_12_1_abs i3 vacker_0 i4 vacker_0 i1 vacker_01 i vacker_01 l i) (while_115_12_1_abs i3 vacker_0 i4 vacker_0 i1 vacker_01 i1 vacker_01 l i) (while_115_12_1_abs i3 vacker_0 i4 vacker_0 i1 vacker_01 i2 vacker_01 l i) (while_115_12_1_abs i3 vacker_0 i4 vacker_0 i2 vacker_01 i vacker_01 l i) (while_115_12_1_abs i3 vacker_0 i4 vacker_0 i2 vacker_01 i1 vacker_01 l i) (while_115_12_1_abs i3 vacker_0 i4 vacker_0 i2 vacker_01 i2 vacker_01 l i) (while_115_12_1_abs i4 vacker_0 i3 vacker_0 i vacker_01 i vacker_01 l i) (while_115_12_1_abs i4 vacker_0 i3 vacker_0 i vacker_01 i1 vacker_01 l i) (while_115_12_1_abs i4 vacker_0 i3 vacker_0 i vacker_01 i2 vacker_01 l i) (while_115_12_1_abs i4 vacker_0 i3 vacker_0 i1 vacker_01 i vacker_01 l i) (while_115_12_1_abs i4 vacker_0 i3 vacker_0 i1 vacker_01 i1 vacker_01 l i) (while_115_12_1_abs i4 vacker_0 i3 vacker_0 i1 vacker_01 i2 vacker_01 l i) (while_115_12_1_abs i4 vacker_0 i3 vacker_0 i2 vacker_01 i vacker_01 l i) (while_115_12_1_abs i4 vacker_0 i3 vacker_0 i2 vacker_01 i1 vacker_01 l i) (while_115_12_1_abs i4 vacker_0 i3 vacker_0 i2 vacker_01 i2 vacker_01 l i) (while_115_12_1_abs i4 vacker_0 i4 vacker_0 i vacker_01 i vacker_01 l i) (while_115_12_1_abs i4 vacker_0 i4 vacker_0 i vacker_01 i1 vacker_01 l i) (while_115_12_1_abs i4 vacker_0 i4 vacker_0 i vacker_01 i2 vacker_01 l i) (while_115_12_1_abs i4 vacker_0 i4 vacker_0 i1 vacker_01 i vacker_01 l i) (while_115_12_1_abs i4 vacker_0 i4 vacker_0 i1 vacker_01 i1 vacker_01 l i) (while_115_12_1_abs i4 vacker_0 i4 vacker_0 i1 vacker_01 i2 vacker_01 l i) (while_115_12_1_abs i4 vacker_0 i4 vacker_0 i2 vacker_01 i vacker_01 l i) (while_115_12_1_abs i4 vacker_0 i4 vacker_0 i2 vacker_01 i1 vacker_01 l i) (while_115_12_1_abs i4 vacker_0 i4 vacker_0 i2 vacker_01 i2 vacker_01 l i) (not (not (= 0 vacker_01)))) (assign_151_18_1_abs i4 vacker_0 i3 vacker_0 i2 vacker_01 i1 vacker_01 l i))))
;
;(aassign) dest[i] := source[i]
(assert (forall ( (i Int) (l Int) (vacker_2 Int) (vacker_1 Int) (vacker_0 Int) (vacker_11 Int) (vacker_01 Int) (i1 Int) (i2 Int) (i3 Int) (i4 Int)) (=> (and (=> (= i i1) (= vacker_0 vacker_1)) (=> (= i i2) (= vacker_0 vacker_2)) (=> (= i1 i2) (= vacker_1 vacker_2)) (=> (= i3 i4) (= vacker_01 vacker_11)) (arrayassign_103_14_5_abs i3 vacker_01 i3 vacker_01 i vacker_0 i vacker_0 l i) (arrayassign_103_14_5_abs i3 vacker_01 i3 vacker_01 i vacker_0 i1 vacker_0 l i) (arrayassign_103_14_5_abs i3 vacker_01 i3 vacker_01 i vacker_0 i2 vacker_0 l i) (arrayassign_103_14_5_abs i3 vacker_01 i3 vacker_01 i1 vacker_0 i vacker_0 l i) (arrayassign_103_14_5_abs i3 vacker_01 i3 vacker_01 i1 vacker_0 i1 vacker_0 l i) (arrayassign_103_14_5_abs i3 vacker_01 i3 vacker_01 i1 vacker_0 i2 vacker_0 l i) (arrayassign_103_14_5_abs i3 vacker_01 i3 vacker_01 i2 vacker_0 i vacker_0 l i) (arrayassign_103_14_5_abs i3 vacker_01 i3 vacker_01 i2 vacker_0 i1 vacker_0 l i) (arrayassign_103_14_5_abs i3 vacker_01 i3 vacker_01 i2 vacker_0 i2 vacker_0 l i) (arrayassign_103_14_5_abs i3 vacker_01 i4 vacker_01 i vacker_0 i vacker_0 l i) (arrayassign_103_14_5_abs i3 vacker_01 i4 vacker_01 i vacker_0 i1 vacker_0 l i) (arrayassign_103_14_5_abs i3 vacker_01 i4 vacker_01 i vacker_0 i2 vacker_0 l i) (arrayassign_103_14_5_abs i3 vacker_01 i4 vacker_01 i1 vacker_0 i vacker_0 l i) (arrayassign_103_14_5_abs i3 vacker_01 i4 vacker_01 i1 vacker_0 i1 vacker_0 l i) (arrayassign_103_14_5_abs i3 vacker_01 i4 vacker_01 i1 vacker_0 i2 vacker_0 l i) (arrayassign_103_14_5_abs i3 vacker_01 i4 vacker_01 i2 vacker_0 i vacker_0 l i) (arrayassign_103_14_5_abs i3 vacker_01 i4 vacker_01 i2 vacker_0 i1 vacker_0 l i) (arrayassign_103_14_5_abs i3 vacker_01 i4 vacker_01 i2 vacker_0 i2 vacker_0 l i) (arrayassign_103_14_5_abs i4 vacker_01 i3 vacker_01 i vacker_0 i vacker_0 l i) (arrayassign_103_14_5_abs i4 vacker_01 i3 vacker_01 i vacker_0 i1 vacker_0 l i) (arrayassign_103_14_5_abs i4 vacker_01 i3 vacker_01 i vacker_0 i2 vacker_0 l i) (arrayassign_103_14_5_abs i4 vacker_01 i3 vacker_01 i1 vacker_0 i vacker_0 l i) (arrayassign_103_14_5_abs i4 vacker_01 i3 vacker_01 i1 vacker_0 i1 vacker_0 l i) (arrayassign_103_14_5_abs i4 vacker_01 i3 vacker_01 i1 vacker_0 i2 vacker_0 l i) (arrayassign_103_14_5_abs i4 vacker_01 i3 vacker_01 i2 vacker_0 i vacker_0 l i) (arrayassign_103_14_5_abs i4 vacker_01 i3 vacker_01 i2 vacker_0 i1 vacker_0 l i) (arrayassign_103_14_5_abs i4 vacker_01 i3 vacker_01 i2 vacker_0 i2 vacker_0 l i) (arrayassign_103_14_5_abs i4 vacker_01 i4 vacker_01 i vacker_0 i vacker_0 l i) (arrayassign_103_14_5_abs i4 vacker_01 i4 vacker_01 i vacker_0 i1 vacker_0 l i) (arrayassign_103_14_5_abs i4 vacker_01 i4 vacker_01 i vacker_0 i2 vacker_0 l i) (arrayassign_103_14_5_abs i4 vacker_01 i4 vacker_01 i1 vacker_0 i vacker_0 l i) (arrayassign_103_14_5_abs i4 vacker_01 i4 vacker_01 i1 vacker_0 i1 vacker_0 l i) (arrayassign_103_14_5_abs i4 vacker_01 i4 vacker_01 i1 vacker_0 i2 vacker_0 l i) (arrayassign_103_14_5_abs i4 vacker_01 i4 vacker_01 i2 vacker_0 i vacker_0 l i) (arrayassign_103_14_5_abs i4 vacker_01 i4 vacker_01 i2 vacker_0 i1 vacker_0 l i) (arrayassign_103_14_5_abs i4 vacker_01 i4 vacker_01 i2 vacker_0 i2 vacker_0 l i)) (assign_112_15_5_abs i4 (ite (= i i4) vacker_0 vacker_01) i3 (ite (= i i3) vacker_0 vacker_01) i2 vacker_0 i1 vacker_0 l i))))
;
;(assign)  i := (i+1)
(assert (forall ( (i Int) (l Int) (vacker_1 Int) (vacker_0 Int) (vacker_11 Int) (vacker_01 Int) (i1 Int) (i2 Int) (i3 Int) (i4 Int)) (=> (and (=> (= i1 i2) (= vacker_0 vacker_1)) (=> (= i3 i4) (= vacker_01 vacker_11)) (assign_112_15_5_abs i3 vacker_01 i3 vacker_01 i1 vacker_0 i1 vacker_0 l i) (assign_112_15_5_abs i3 vacker_01 i3 vacker_01 i1 vacker_0 i2 vacker_0 l i) (assign_112_15_5_abs i3 vacker_01 i3 vacker_01 i2 vacker_0 i1 vacker_0 l i) (assign_112_15_5_abs i3 vacker_01 i3 vacker_01 i2 vacker_0 i2 vacker_0 l i) (assign_112_15_5_abs i3 vacker_01 i4 vacker_01 i1 vacker_0 i1 vacker_0 l i) (assign_112_15_5_abs i3 vacker_01 i4 vacker_01 i1 vacker_0 i2 vacker_0 l i) (assign_112_15_5_abs i3 vacker_01 i4 vacker_01 i2 vacker_0 i1 vacker_0 l i) (assign_112_15_5_abs i3 vacker_01 i4 vacker_01 i2 vacker_0 i2 vacker_0 l i) (assign_112_15_5_abs i4 vacker_01 i3 vacker_01 i1 vacker_0 i1 vacker_0 l i) (assign_112_15_5_abs i4 vacker_01 i3 vacker_01 i1 vacker_0 i2 vacker_0 l i) (assign_112_15_5_abs i4 vacker_01 i3 vacker_01 i2 vacker_0 i1 vacker_0 l i) (assign_112_15_5_abs i4 vacker_01 i3 vacker_01 i2 vacker_0 i2 vacker_0 l i) (assign_112_15_5_abs i4 vacker_01 i4 vacker_01 i1 vacker_0 i1 vacker_0 l i) (assign_112_15_5_abs i4 vacker_01 i4 vacker_01 i1 vacker_0 i2 vacker_0 l i) (assign_112_15_5_abs i4 vacker_01 i4 vacker_01 i2 vacker_0 i1 vacker_0 l i) (assign_112_15_5_abs i4 vacker_01 i4 vacker_01 i2 vacker_0 i2 vacker_0 l i)) (while_115_12_1_abs i4 vacker_01 i3 vacker_01 i2 vacker_0 i1 vacker_0 l (+ i 1)))))
;
;(assign)  l := i
(assert (forall ( (i Int) (l Int) (vacker_1 Int) (vacker_0 Int) (vacker_11 Int) (vacker_01 Int) (i1 Int) (i2 Int) (i3 Int) (i4 Int)) (=> (and (=> (= i1 i2) (= vacker_0 vacker_1)) (=> (= i3 i4) (= vacker_01 vacker_11)) (assign_151_18_1_abs i3 vacker_01 i3 vacker_01 i1 vacker_0 i1 vacker_0 l i) (assign_151_18_1_abs i3 vacker_01 i3 vacker_01 i1 vacker_0 i2 vacker_0 l i) (assign_151_18_1_abs i3 vacker_01 i3 vacker_01 i2 vacker_0 i1 vacker_0 l i) (assign_151_18_1_abs i3 vacker_01 i3 vacker_01 i2 vacker_0 i2 vacker_0 l i) (assign_151_18_1_abs i3 vacker_01 i4 vacker_01 i1 vacker_0 i1 vacker_0 l i) (assign_151_18_1_abs i3 vacker_01 i4 vacker_01 i1 vacker_0 i2 vacker_0 l i) (assign_151_18_1_abs i3 vacker_01 i4 vacker_01 i2 vacker_0 i1 vacker_0 l i) (assign_151_18_1_abs i3 vacker_01 i4 vacker_01 i2 vacker_0 i2 vacker_0 l i) (assign_151_18_1_abs i4 vacker_01 i3 vacker_01 i1 vacker_0 i1 vacker_0 l i) (assign_151_18_1_abs i4 vacker_01 i3 vacker_01 i1 vacker_0 i2 vacker_0 l i) (assign_151_18_1_abs i4 vacker_01 i3 vacker_01 i2 vacker_0 i1 vacker_0 l i) (assign_151_18_1_abs i4 vacker_01 i3 vacker_01 i2 vacker_0 i2 vacker_0 l i) (assign_151_18_1_abs i4 vacker_01 i4 vacker_01 i1 vacker_0 i1 vacker_0 l i) (assign_151_18_1_abs i4 vacker_01 i4 vacker_01 i1 vacker_0 i2 vacker_0 l i) (assign_151_18_1_abs i4 vacker_01 i4 vacker_01 i2 vacker_0 i1 vacker_0 l i) (assign_151_18_1_abs i4 vacker_01 i4 vacker_01 i2 vacker_0 i2 vacker_0 l i)) (assign_187_20_8_abs i4 vacker_01 i3 vacker_01 i2 vacker_0 i1 vacker_0 i i))))
;
;(assign)  i := 0
(assert (forall ( (i Int) (l Int) (vacker_1 Int) (vacker_0 Int) (vacker_11 Int) (vacker_01 Int) (i1 Int) (i2 Int) (i3 Int) (i4 Int)) (=> (and (=> (= i1 i2) (= vacker_0 vacker_1)) (=> (= i3 i4) (= vacker_01 vacker_11)) (assign_187_20_8_abs i3 vacker_01 i3 vacker_01 i1 vacker_0 i1 vacker_0 l i) (assign_187_20_8_abs i3 vacker_01 i3 vacker_01 i1 vacker_0 i2 vacker_0 l i) (assign_187_20_8_abs i3 vacker_01 i3 vacker_01 i2 vacker_0 i1 vacker_0 l i) (assign_187_20_8_abs i3 vacker_01 i3 vacker_01 i2 vacker_0 i2 vacker_0 l i) (assign_187_20_8_abs i3 vacker_01 i4 vacker_01 i1 vacker_0 i1 vacker_0 l i) (assign_187_20_8_abs i3 vacker_01 i4 vacker_01 i1 vacker_0 i2 vacker_0 l i) (assign_187_20_8_abs i3 vacker_01 i4 vacker_01 i2 vacker_0 i1 vacker_0 l i) (assign_187_20_8_abs i3 vacker_01 i4 vacker_01 i2 vacker_0 i2 vacker_0 l i) (assign_187_20_8_abs i4 vacker_01 i3 vacker_01 i1 vacker_0 i1 vacker_0 l i) (assign_187_20_8_abs i4 vacker_01 i3 vacker_01 i1 vacker_0 i2 vacker_0 l i) (assign_187_20_8_abs i4 vacker_01 i3 vacker_01 i2 vacker_0 i1 vacker_0 l i) (assign_187_20_8_abs i4 vacker_01 i3 vacker_01 i2 vacker_0 i2 vacker_0 l i) (assign_187_20_8_abs i4 vacker_01 i4 vacker_01 i1 vacker_0 i1 vacker_0 l i) (assign_187_20_8_abs i4 vacker_01 i4 vacker_01 i1 vacker_0 i2 vacker_0 l i) (assign_187_20_8_abs i4 vacker_01 i4 vacker_01 i2 vacker_0 i1 vacker_0 l i) (assign_187_20_8_abs i4 vacker_01 i4 vacker_01 i2 vacker_0 i2 vacker_0 l i)) (while_285_22_8_abs i4 vacker_01 i3 vacker_01 i2 vacker_0 i1 vacker_0 l 0))))
;
;(while)   while((i<l))
(assert (forall ( (vacker_1 Int) (vacker_0 Int) (vacker_11 Int) (vacker_01 Int) (l Int) (i Int) (i1 Int) (i2 Int) (i3 Int) (i4 Int)) (=> (and (=> (= i3 i4) (= vacker_0 vacker_1)) (=> (= i1 i2) (= vacker_01 vacker_11)) (while_285_22_8_abs i3 vacker_0 i3 vacker_0 i1 vacker_01 i1 vacker_01 l i) (while_285_22_8_abs i3 vacker_0 i3 vacker_0 i1 vacker_01 i2 vacker_01 l i) (while_285_22_8_abs i3 vacker_0 i3 vacker_0 i2 vacker_01 i1 vacker_01 l i) (while_285_22_8_abs i3 vacker_0 i3 vacker_0 i2 vacker_01 i2 vacker_01 l i) (while_285_22_8_abs i3 vacker_0 i4 vacker_0 i1 vacker_01 i1 vacker_01 l i) (while_285_22_8_abs i3 vacker_0 i4 vacker_0 i1 vacker_01 i2 vacker_01 l i) (while_285_22_8_abs i3 vacker_0 i4 vacker_0 i2 vacker_01 i1 vacker_01 l i) (while_285_22_8_abs i3 vacker_0 i4 vacker_0 i2 vacker_01 i2 vacker_01 l i) (while_285_22_8_abs i4 vacker_0 i3 vacker_0 i1 vacker_01 i1 vacker_01 l i) (while_285_22_8_abs i4 vacker_0 i3 vacker_0 i1 vacker_01 i2 vacker_01 l i) (while_285_22_8_abs i4 vacker_0 i3 vacker_0 i2 vacker_01 i1 vacker_01 l i) (while_285_22_8_abs i4 vacker_0 i3 vacker_0 i2 vacker_01 i2 vacker_01 l i) (while_285_22_8_abs i4 vacker_0 i4 vacker_0 i1 vacker_01 i1 vacker_01 l i) (while_285_22_8_abs i4 vacker_0 i4 vacker_0 i1 vacker_01 i2 vacker_01 l i) (while_285_22_8_abs i4 vacker_0 i4 vacker_0 i2 vacker_01 i1 vacker_01 l i) (while_285_22_8_abs i4 vacker_0 i4 vacker_0 i2 vacker_01 i2 vacker_01 l i) (< i l)) (assert_273_25_3_abs i4 vacker_0 i3 vacker_0 i2 vacker_01 i1 vacker_01 l i))))
(assert (forall ( (vacker_1 Int) (vacker_0 Int) (vacker_11 Int) (vacker_01 Int) (l Int) (i Int) (i1 Int) (i2 Int) (i3 Int) (i4 Int)) (=> (and (=> (= i3 i4) (= vacker_0 vacker_1)) (=> (= i1 i2) (= vacker_01 vacker_11)) (while_285_22_8_abs i3 vacker_0 i3 vacker_0 i1 vacker_01 i1 vacker_01 l i) (while_285_22_8_abs i3 vacker_0 i3 vacker_0 i1 vacker_01 i2 vacker_01 l i) (while_285_22_8_abs i3 vacker_0 i3 vacker_0 i2 vacker_01 i1 vacker_01 l i) (while_285_22_8_abs i3 vacker_0 i3 vacker_0 i2 vacker_01 i2 vacker_01 l i) (while_285_22_8_abs i3 vacker_0 i4 vacker_0 i1 vacker_01 i1 vacker_01 l i) (while_285_22_8_abs i3 vacker_0 i4 vacker_0 i1 vacker_01 i2 vacker_01 l i) (while_285_22_8_abs i3 vacker_0 i4 vacker_0 i2 vacker_01 i1 vacker_01 l i) (while_285_22_8_abs i3 vacker_0 i4 vacker_0 i2 vacker_01 i2 vacker_01 l i) (while_285_22_8_abs i4 vacker_0 i3 vacker_0 i1 vacker_01 i1 vacker_01 l i) (while_285_22_8_abs i4 vacker_0 i3 vacker_0 i1 vacker_01 i2 vacker_01 l i) (while_285_22_8_abs i4 vacker_0 i3 vacker_0 i2 vacker_01 i1 vacker_01 l i) (while_285_22_8_abs i4 vacker_0 i3 vacker_0 i2 vacker_01 i2 vacker_01 l i) (while_285_22_8_abs i4 vacker_0 i4 vacker_0 i1 vacker_01 i1 vacker_01 l i) (while_285_22_8_abs i4 vacker_0 i4 vacker_0 i1 vacker_01 i2 vacker_01 l i) (while_285_22_8_abs i4 vacker_0 i4 vacker_0 i2 vacker_01 i1 vacker_01 l i) (while_285_22_8_abs i4 vacker_0 i4 vacker_0 i2 vacker_01 i2 vacker_01 l i) (not (< i l))) (end_abs i4 vacker_0 i3 vacker_0 i2 vacker_01 i1 vacker_01 l i))))
;
;(assert)  (source[i]==dest[i])
(assert (forall ( (i Int) (l Int) (acker1 Int) (acker Int)) (=> (assert_273_25_3_abs i acker i acker i acker1 i acker1 l i) (= acker acker1))))
(assert (forall ( (i Int) (l Int) (vacker_1 Int) (vacker_0 Int) (vacker_11 Int) (vacker_01 Int) (i1 Int) (i2 Int) (i3 Int) (i4 Int)) (=> (and (=> (= i1 i2) (= vacker_0 vacker_1)) (=> (= i3 i4) (= vacker_01 vacker_11)) (assert_273_25_3_abs i3 vacker_01 i3 vacker_01 i1 vacker_0 i1 vacker_0 l i) (assert_273_25_3_abs i3 vacker_01 i3 vacker_01 i1 vacker_0 i2 vacker_0 l i) (assert_273_25_3_abs i3 vacker_01 i3 vacker_01 i2 vacker_0 i1 vacker_0 l i) (assert_273_25_3_abs i3 vacker_01 i3 vacker_01 i2 vacker_0 i2 vacker_0 l i) (assert_273_25_3_abs i3 vacker_01 i4 vacker_01 i1 vacker_0 i1 vacker_0 l i) (assert_273_25_3_abs i3 vacker_01 i4 vacker_01 i1 vacker_0 i2 vacker_0 l i) (assert_273_25_3_abs i3 vacker_01 i4 vacker_01 i2 vacker_0 i1 vacker_0 l i) (assert_273_25_3_abs i3 vacker_01 i4 vacker_01 i2 vacker_0 i2 vacker_0 l i) (assert_273_25_3_abs i4 vacker_01 i3 vacker_01 i1 vacker_0 i1 vacker_0 l i) (assert_273_25_3_abs i4 vacker_01 i3 vacker_01 i1 vacker_0 i2 vacker_0 l i) (assert_273_25_3_abs i4 vacker_01 i3 vacker_01 i2 vacker_0 i1 vacker_0 l i) (assert_273_25_3_abs i4 vacker_01 i3 vacker_01 i2 vacker_0 i2 vacker_0 l i) (assert_273_25_3_abs i4 vacker_01 i4 vacker_01 i1 vacker_0 i1 vacker_0 l i) (assert_273_25_3_abs i4 vacker_01 i4 vacker_01 i1 vacker_0 i2 vacker_0 l i) (assert_273_25_3_abs i4 vacker_01 i4 vacker_01 i2 vacker_0 i1 vacker_0 l i) (assert_273_25_3_abs i4 vacker_01 i4 vacker_01 i2 vacker_0 i2 vacker_0 l i)) (assign_282_26_10_abs i4 vacker_01 i3 vacker_01 i2 vacker_0 i1 vacker_0 l i))))
;
;(assign)  i := (i+1)
(assert (forall ( (i Int) (l Int) (vacker_1 Int) (vacker_0 Int) (vacker_11 Int) (vacker_01 Int) (i1 Int) (i2 Int) (i3 Int) (i4 Int)) (=> (and (=> (= i1 i2) (= vacker_0 vacker_1)) (=> (= i3 i4) (= vacker_01 vacker_11)) (assign_282_26_10_abs i3 vacker_01 i3 vacker_01 i1 vacker_0 i1 vacker_0 l i) (assign_282_26_10_abs i3 vacker_01 i3 vacker_01 i1 vacker_0 i2 vacker_0 l i) (assign_282_26_10_abs i3 vacker_01 i3 vacker_01 i2 vacker_0 i1 vacker_0 l i) (assign_282_26_10_abs i3 vacker_01 i3 vacker_01 i2 vacker_0 i2 vacker_0 l i) (assign_282_26_10_abs i3 vacker_01 i4 vacker_01 i1 vacker_0 i1 vacker_0 l i) (assign_282_26_10_abs i3 vacker_01 i4 vacker_01 i1 vacker_0 i2 vacker_0 l i) (assign_282_26_10_abs i3 vacker_01 i4 vacker_01 i2 vacker_0 i1 vacker_0 l i) (assign_282_26_10_abs i3 vacker_01 i4 vacker_01 i2 vacker_0 i2 vacker_0 l i) (assign_282_26_10_abs i4 vacker_01 i3 vacker_01 i1 vacker_0 i1 vacker_0 l i) (assign_282_26_10_abs i4 vacker_01 i3 vacker_01 i1 vacker_0 i2 vacker_0 l i) (assign_282_26_10_abs i4 vacker_01 i3 vacker_01 i2 vacker_0 i1 vacker_0 l i) (assign_282_26_10_abs i4 vacker_01 i3 vacker_01 i2 vacker_0 i2 vacker_0 l i) (assign_282_26_10_abs i4 vacker_01 i4 vacker_01 i1 vacker_0 i1 vacker_0 l i) (assign_282_26_10_abs i4 vacker_01 i4 vacker_01 i1 vacker_0 i2 vacker_0 l i) (assign_282_26_10_abs i4 vacker_01 i4 vacker_01 i2 vacker_0 i1 vacker_0 l i) (assign_282_26_10_abs i4 vacker_01 i4 vacker_01 i2 vacker_0 i2 vacker_0 l i)) (while_285_22_8_abs i4 vacker_01 i3 vacker_01 i2 vacker_0 i1 vacker_0 l (+ i 1)))))
(check-sat)
